42
715
1411 74
1406 75
1406 75
1407 72
1406 73
1407 75
1407 75
1408 74
1409 74
1409 72
1408 72
1412 73
1411 74
1411 75
1408 75
1406 74
1411 74
1410 75
1406 72
1408 74
1410 73
1410 75
1405 73
1411 72
1408 74
1410 74
1408 72
1409 73
1411 74
1409 73
1406 73
1409 75
1405 73
1411 73
1406 73
1409 75
1411 73
1411 75
1407 72
1408 74
1412 72
1409 74
